17,2	0,0	5,4	10,9	0,0	0,0	0,0	0,0	0,0	10,3
13,9	10,3	0,0	16,8	17,2	0,0	0,0	11,4	0,0	0,0
0,0	0,0	5,7	0,0	5,5	15,8	0,0	0,0	17,2	0,0
18,8	0,0	17,7	0,0	0,0	0,0	6,5	0,0	0,0	0,0
0,0	5,7	0,0	6,9	15,1	0,0	0,0	16,6	0,0	0,0
0,0	13,8	17,4	0,0	5,9	10,7	0,0	0,0	16,2	0,0
0,0	15,7	0,0	19,7	0,0	0,0	6,4	0,0	0,0	14,6
14,7	0,0	6,8	0,0	0,0	0,0	0,0	0,0	0,0	19,7
0,0	13,7	0,0	13,0	15,0	0,0	0,0	16,9	0,0	0,0
0,0	0,0	10,1	0,0	0,0	18,4	8,7	0,0	0,0	19,1
0,0	13,2	0,0	0,0	9,6	0,0	17,3	0,0	11,0	18,1
19,9	0,0	11,2	0,0	10,0	0,0	11,6	14,0	9,3	0,0
0,0	10,6	0,0	0,0	0,0	12,2	0,0	13,3	13,7	16,6
17,5	9,1	16,2	0,0	0,0	8,7	0,0	16,4	17,9	0,0
5,4	0,0	12,9	0,0	18,9	17,6	6,0	6,8	0,0	0,0
0,0	7,7	0,0	5,3	0,0	15,1	0,0	9,5	0,0	0,0
13,9	0,0	18,0	6,5	9,6	0,0	0,0	19,9	0,0	0,0
0,0	0,0	8,8	0,0	0,0	19,9	15,6	0,0	7,8	14,7
16,8	0,0	0,0	16,6	7,7	19,0	19,5	10,6	0,0	15,2
0,0	9,6	0,0	12,4	0,0	0,0	6,6	0,0	12,4	18,0
									
4,8	4,3	2,9	4,5	4,2	2,8	4,5	4,8	4,1	3,8
